SCIP version 5.0.0 [precision: 8 byte] [memory: block] [mode: optimized] [LP solver: NONE] [GitHash: 3bbd232]
Copyright (C) 2002-2017 Konrad-Zuse-Zentrum fuer Informationstechnik Berlin (ZIB)

External codes: 
  Readline EditLine w  GNU library for command line editing (gnu.org/s/readline)
  CppAD 20160000.1     Algorithmic Differentiation of C++ algorithms developed by B. Bell (www.coin-or.org/CppAD)
  ZLIB 1.2.5           General purpose compression library by J. Gailly and M. Adler (zlib.net)
  GMP 6.1.2            GNU Multiple Precision Arithmetic Library developed by T. Granlund (gmplib.org)

user parameter file <scip.set> not found - using default parameters

read problem <../../Split_data/output/biodeg/8/4_sample_biodeg.logreg>
============

File name	:	../../Split_data/output/biodeg/8/4_sample_biodeg.logreg
Problem name 	:	4_sample_biodeg
Number of data	:	844
Number of var	:	41
The given data has linear dependence
1 sets of column vector are linearly dependent:
{ 19}, 

[dim=1] time: 0.027546
[dim=2] time: 0.058592
[dim=3] time: 0.090879
[dim=4] time: 0.123884
[dim=5] time: 0.157205
[dim=6] time: 0.205859
[dim=7] time: 0.237563
[dim=8] time: 0.272656
[dim=9] time: 0.29937
[dim=10] time: 0.327224
[dim=11] time: 0.357418
[dim=12] time: 0.383111
[dim=13] time: 0.409247
[dim=14] time: 0.434374
[dim=15] time: 0.454209
[dim=16] time: 0.471672
[dim=17] time: 0.489106
[dim=18] time: 0.506647
[dim=19] time: 0.524205
[dim=20] time: 0.543401
[dim=21] time: 0.560326
[dim=22] time: 0.578953
[dim=23] time: 0.597162
[dim=24] time: 0.613392
[dim=25] Time of forward = 0.628512sec.
AIC: 516.782
k: 24

[dim=40] time: 0.149108
[dim=39] time: 0.199772
[dim=38] time: 0.248394
[dim=37] time: 0.295358
[dim=36] time: 0.334831
[dim=35] time: 0.388735
[dim=34] time: 0.439167
[dim=33] time: 0.489831
[dim=32] time: 0.548185
[dim=31] time: 0.587008
[dim=30] time: 0.625524
[dim=29] time: 0.659464
[dim=28] time: 0.689367
[dim=27] time: 0.717899
[dim=26] time: 0.747917
[dim=25] time: 0.772866
[dim=24] Time of backward = 0.807214sec.
AIC: 516.189
k: 25
